FourierSAT_Github_AIJ/benchmarks/MAXSAT_benchmarks/crafted/3/bipartite/maxcut-140-630-0.8/maxcut-140-630-0.8-1.cnf
c strEdges: 125  randomEdges: 504 
c degrees:  1  2 
c girth: Inf max: -43.604516  
c Hgirth mixed MAXCUT instance
c generated from an undirected graph
c to solve unweighted MaxCut
p cnf 140 1258
94 54 0
-94 -54 0
40 51 0
-40 -51 0
40 23 0
-40 -23 0
29 104 0
-29 -104 0
29 50 0
-29 -50 0
89 99 0
-89 -99 0
89 47 0
-89 -47 0
78 1 0
-78 -1 0
78 111 0
-78 -111 0
66 37 0
-66 -37 0
12 77 0
-12 -77 0
12 91 0
-12 -91 0
124 83 0
-124 -83 0
124 43 0
-124 -43 0
7 43 0
-7 -43 0
7 28 0
-7 -28 0
134 97 0
-134 -97 0
134 129 0
-134 -129 0
106 14 0
-106 -14 0
106 52 0
-106 -52 0
88 87 0
-88 -87 0
88 54 0
-88 -54 0
46 68 0
-46 -68 0
46 42 0
-46 -42 0
79 36 0
-79 -36 0
79 19 0
-79 -19 0
10 125 0
-10 -125 0
10 1 0
-10 -1 0
140 129 0
-140 -129 0
60 90 0
-60 -90 0
60 109 0
-60 -109 0
93 3 0
-93 -3 0
93 90 0
-93 -90 0
5 118 0
-5 -118 0
5 55 0
-5 -55 0
130 30 0
-130 -30 0
130 18 0
-130 -18 0
108 110 0
-108 -110 0
108 16 0
-108 -16 0
117 116 0
-117 -116 0
117 99 0
-117 -99 0
59 22 0
-59 -22 0
59 116 0
-59 -116 0
57 76 0
-57 -76 0
57 41 0
-57 -41 0
127 126 0
-127 -126 0
127 9 0
-127 -9 0
138 136 0
-138 -136 0
138 87 0
-138 -87 0
135 26 0
-135 -26 0
135 64 0
-135 -64 0
107 41 0
-107 -41 0
107 3 0
-107 -3 0
71 91 0
-71 -91 0
71 36 0
-71 -36 0
74 45 0
-74 -45 0
74 51 0
-74 -51 0
95 13 0
-95 -13 0
95 38 0
-95 -38 0
113 131 0
-113 -131 0
113 61 0
-113 -61 0
80 19 0
-80 -19 0
80 44 0
-80 -44 0
139 132 0
-139 -132 0
112 44 0
-112 -44 0
112 27 0
-112 -27 0
48 9 0
-48 -9 0
24 61 0
-24 -61 0
24 35 0
-24 -35 0
119 64 0
-119 -64 0
119 97 0
-119 -97 0
75 32 0
-75 -32 0
75 37 0
-75 -37 0
62 102 0
-62 -102 0
62 34 0
-62 -34 0
53 55 0
-53 -55 0
58 109 0
-58 -109 0
58 83 0
-58 -83 0
63 133 0
-63 -133 0
92 111 0
-92 -111 0
92 137 0
-92 -137 0
33 84 0
-33 -84 0
6 16 0
-6 -16 0
81 23 0
-81 -23 0
81 39 0
-81 -39 0
98 35 0
-98 -35 0
98 15 0
-98 -15 0
67 38 0
-67 -38 0
67 126 0
-67 -126 0
100 120 0
-100 -120 0
72 73 0
-72 -73 0
72 4 0
-72 -4 0
121 42 0
-121 -42 0
115 96 0
-115 -96 0
115 22 0
-115 -22 0
69 28 0
-69 -28 0
69 68 0
-69 -68 0
101 8 0
-101 -8 0
101 132 0
-101 -132 0
21 4 0
-21 -4 0
65 50 0
-65 -50 0
65 102 0
-65 -102 0
103 39 0
-103 -39 0
103 118 0
-103 -118 0
25 31 0
-25 -31 0
122 47 0
-122 -47 0
122 120 0
-122 -120 0
2 18 0
-2 -18 0
2 32 0
-2 -32 0
85 27 0
-85 -27 0
85 133 0
-85 -133 0
86 15 0
-86 -15 0
86 104 0
-86 -104 0
105 20 0
-105 -20 0
128 123 0
-128 -123 0
128 136 0
-128 -136 0
11 17 0
-11 -17 0
11 30 0
-11 -30 0
56 70 0
-56 -70 0
49 137 0
-49 -137 0
49 110 0
-49 -110 0
82 52 0
-82 -52 0
82 125 0
-82 -125 0
114 34 0
-114 -34 0
114 17 0
-114 -17 0
46 90 0
-46 -90 0
127 22 0
-127 -22 0
7 22 0
-7 -22 0
63 126 0
-63 -126 0
46 51 0
-46 -51 0
71 109 0
-71 -109 0
77 68 0
-77 -68 0
139 43 0
-139 -43 0
58 103 0
-58 -103 0
53 118 0
-53 -118 0
92 64 0
-92 -64 0
128 90 0
-128 -90 0
82 77 0
-82 -77 0
107 67 0
-107 -67 0
106 31 0
-106 -31 0
66 32 0
-66 -32 0
79 128 0
-79 -128 0
120 39 0
-120 -39 0
106 84 0
-106 -84 0
122 118 0
-122 -118 0
65 26 0
-65 -26 0
114 50 0
-114 -50 0
119 58 0
-119 -58 0
135 13 0
-135 -13 0
135 77 0
-135 -77 0
66 110 0
-66 -110 0
124 139 0
-124 -139 0
103 4 0
-103 -4 0
124 88 0
-124 -88 0
74 114 0
-74 -114 0
54 43 0
-54 -43 0
10 77 0
-10 -77 0
21 50 0
-21 -50 0
134 52 0
-134 -52 0
124 13 0
-124 -13 0
106 118 0
-106 -118 0
91 32 0
-91 -32 0
7 71 0
-7 -71 0
115 45 0
-115 -45 0
23 8 0
-23 -8 0
94 28 0
-94 -28 0
115 42 0
-115 -42 0
49 118 0
-49 -118 0
124 56 0
-124 -56 0
83 123 0
-83 -123 0
130 3 0
-130 -3 0
29 102 0
-29 -102 0
86 54 0
-86 -54 0
19 31 0
-19 -31 0
57 37 0
-57 -37 0
19 39 0
-19 -39 0
106 57 0
-106 -57 0
46 139 0
-46 -139 0
86 27 0
-86 -27 0
127 43 0
-127 -43 0
13 38 0
-13 -38 0
2 56 0
-2 -56 0
61 47 0
-61 -47 0
140 20 0
-140 -20 0
33 114 0
-33 -114 0
5 2 0
-5 -2 0
94 87 0
-94 -87 0
72 50 0
-72 -50 0
78 93 0
-78 -93 0
86 9 0
-86 -9 0
127 47 0
-127 -47 0
56 120 0
-56 -120 0
122 56 0
-122 -56 0
96 15 0
-96 -15 0
24 115 0
-24 -115 0
129 19 0
-129 -19 0
134 19 0
-134 -19 0
121 87 0
-121 -87 0
69 25 0
-69 -25 0
14 96 0
-14 -96 0
119 13 0
-119 -13 0
23 50 0
-23 -50 0
107 72 0
-107 -72 0
86 61 0
-86 -61 0
42 17 0
-42 -17 0
14 28 0
-14 -28 0
56 50 0
-56 -50 0
114 51 0
-114 -51 0
95 50 0
-95 -50 0
119 76 0
-119 -76 0
95 73 0
-95 -73 0
41 123 0
-41 -123 0
63 64 0
-63 -64 0
126 137 0
-126 -137 0
21 25 0
-21 -25 0
49 28 0
-49 -28 0
121 31 0
-121 -31 0
79 114 0
-79 -114 0
48 36 0
-48 -36 0
100 28 0
-100 -28 0
95 64 0
-95 -64 0
119 120 0
-119 -120 0
12 102 0
-12 -102 0
113 65 0
-113 -65 0
89 60 0
-89 -60 0
139 6 0
-139 -6 0
106 114 0
-106 -114 0
113 9 0
-113 -9 0
12 113 0
-12 -113 0
80 21 0
-80 -21 0
107 85 0
-107 -85 0
74 82 0
-74 -82 0
65 123 0
-65 -123 0
88 5 0
-88 -5 0
107 53 0
-107 -53 0
40 112 0
-40 -112 0
124 76 0
-124 -76 0
29 131 0
-29 -131 0
134 27 0
-134 -27 0
139 73 0
-139 -73 0
138 70 0
-138 -70 0
10 90 0
-10 -90 0
2 97 0
-2 -97 0
51 43 0
-51 -43 0
134 132 0
-134 -132 0
80 35 0
-80 -35 0
100 37 0
-100 -37 0
106 45 0
-106 -45 0
124 6 0
-124 -6 0
6 103 0
-6 -103 0
7 131 0
-7 -131 0
29 129 0
-29 -129 0
42 27 0
-42 -27 0
76 109 0
-76 -109 0
12 131 0
-12 -131 0
11 133 0
-11 -133 0
127 55 0
-127 -55 0
79 4 0
-79 -4 0
86 4 0
-86 -4 0
53 73 0
-53 -73 0
131 64 0
-131 -64 0
60 26 0
-60 -26 0
40 139 0
-40 -139 0
82 9 0
-82 -9 0
98 13 0
-98 -13 0
108 61 0
-108 -61 0
77 83 0
-77 -83 0
138 26 0
-138 -26 0
57 85 0
-57 -85 0
90 52 0
-90 -52 0
93 58 0
-93 -58 0
2 13 0
-2 -13 0
67 69 0
-67 -69 0
29 58 0
-29 -58 0
79 117 0
-79 -117 0
74 20 0
-74 -20 0
66 123 0
-66 -123 0
117 77 0
-117 -77 0
139 92 0
-139 -92 0
106 76 0
-106 -76 0
124 70 0
-124 -70 0
108 102 0
-108 -102 0
81 52 0
-81 -52 0
130 47 0
-130 -47 0
46 105 0
-46 -105 0
29 76 0
-29 -76 0
67 51 0
-67 -51 0
25 51 0
-25 -51 0
48 34 0
-48 -34 0
81 13 0
-81 -13 0
46 53 0
-46 -53 0
132 15 0
-132 -15 0
21 76 0
-21 -76 0
82 118 0
-82 -118 0
122 14 0
-122 -14 0
95 112 0
-95 -112 0
2 35 0
-2 -35 0
112 116 0
-112 -116 0
29 115 0
-29 -115 0
40 34 0
-40 -34 0
53 25 0
-53 -25 0
32 96 0
-32 -96 0
97 15 0
-97 -15 0
37 76 0
-37 -76 0
130 76 0
-130 -76 0
127 32 0
-127 -32 0
124 55 0
-124 -55 0
7 84 0
-7 -84 0
108 55 0
-108 -55 0
71 39 0
-71 -39 0
88 27 0
-88 -27 0
108 136 0
-108 -136 0
26 39 0
-26 -39 0
21 123 0
-21 -123 0
89 52 0
-89 -52 0
127 81 0
-127 -81 0
93 20 0
-93 -20 0
58 28 0
-58 -28 0
115 1 0
-115 -1 0
94 132 0
-94 -132 0
5 105 0
-5 -105 0
10 128 0
-10 -128 0
108 105 0
-108 -105 0
71 14 0
-71 -14 0
98 36 0
-98 -36 0
106 127 0
-106 -127 0
117 74 0
-117 -74 0
21 19 0
-21 -19 0
79 58 0
-79 -58 0
130 73 0
-130 -73 0
130 99 0
-130 -99 0
129 55 0
-129 -55 0
124 1 0
-124 -1 0
14 17 0
-14 -17 0
113 48 0
-113 -48 0
86 70 0
-86 -70 0
106 128 0
-106 -128 0
3 19 0
-3 -19 0
3 109 0
-3 -109 0
106 44 0
-106 -44 0
111 42 0
-111 -42 0
5 41 0
-5 -41 0
48 84 0
-48 -84 0
1 36 0
-1 -36 0
107 120 0
-107 -120 0
133 18 0
-133 -18 0
53 61 0
-53 -61 0
72 23 0
-72 -23 0
112 28 0
-112 -28 0
115 3 0
-115 -3 0
48 65 0
-48 -65 0
29 78 0
-29 -78 0
57 119 0
-57 -119 0
133 73 0
-133 -73 0
117 8 0
-117 -8 0
79 136 0
-79 -136 0
3 123 0
-3 -123 0
63 99 0
-63 -99 0
124 64 0
-124 -64 0
72 8 0
-72 -8 0
12 4 0
-12 -4 0
10 16 0
-10 -16 0
12 76 0
-12 -76 0
79 129 0
-79 -129 0
57 26 0
-57 -26 0
78 18 0
-78 -18 0
81 55 0
-81 -55 0
24 116 0
-24 -116 0
53 20 0
-53 -20 0
122 11 0
-122 -11 0
94 62 0
-94 -62 0
129 31 0
-129 -31 0
78 122 0
-78 -122 0
62 90 0
-62 -90 0
40 74 0
-40 -74 0
59 64 0
-59 -64 0
98 30 0
-98 -30 0
93 56 0
-93 -56 0
122 114 0
-122 -114 0
80 83 0
-80 -83 0
138 74 0
-138 -74 0
69 37 0
-69 -37 0
24 72 0
-24 -72 0
107 33 0
-107 -33 0
91 120 0
-91 -120 0
47 27 0
-47 -27 0
138 84 0
-138 -84 0
112 34 0
-112 -34 0
93 59 0
-93 -59 0
95 102 0
-95 -102 0
130 72 0
-130 -72 0
111 123 0
-111 -123 0
65 34 0
-65 -34 0
71 123 0
-71 -123 0
124 99 0
-124 -99 0
49 42 0
-49 -42 0
5 52 0
-5 -52 0
40 95 0
-40 -95 0
3 91 0
-3 -91 0
56 82 0
-56 -82 0
109 73 0
-109 -73 0
105 55 0
-105 -55 0
33 99 0
-33 -99 0
138 30 0
-138 -30 0
70 34 0
-70 -34 0
89 4 0
-89 -4 0
51 4 0
-51 -4 0
7 37 0
-7 -37 0
22 16 0
-22 -16 0
75 8 0
-75 -8 0
122 133 0
-122 -133 0
60 8 0
-60 -8 0
135 91 0
-135 -91 0
121 110 0
-121 -110 0
133 31 0
-133 -31 0
36 34 0
-36 -34 0
55 4 0
-55 -4 0
38 27 0
-38 -27 0
115 11 0
-115 -11 0
104 55 0
-104 -55 0
61 34 0
-61 -34 0
114 84 0
-114 -84 0
140 70 0
-140 -70 0
13 137 0
-13 -137 0
63 111 0
-63 -111 0
108 104 0
-108 -104 0
74 73 0
-74 -73 0
103 17 0
-103 -17 0
66 51 0
-66 -51 0
119 109 0
-119 -109 0
19 42 0
-19 -42 0
66 1 0
-66 -1 0
53 15 0
-53 -15 0
30 8 0
-30 -8 0
105 38 0
-105 -38 0
106 10 0
-106 -10 0
127 15 0
-127 -15 0
72 44 0
-72 -44 0
130 36 0
-130 -36 0
11 109 0
-11 -109 0
103 120 0
-103 -120 0
29 2 0
-29 -2 0
55 111 0
-55 -111 0
75 76 0
-75 -76 0
138 20 0
-138 -20 0
21 16 0
-21 -16 0
134 107 0
-134 -107 0
83 4 0
-83 -4 0
106 101 0
-106 -101 0
135 96 0
-135 -96 0
48 131 0
-48 -131 0
1 83 0
-1 -83 0
40 117 0
-40 -117 0
80 105 0
-80 -105 0
78 49 0
-78 -49 0
46 100 0
-46 -100 0
105 37 0
-105 -37 0
79 120 0
-79 -120 0
56 41 0
-56 -41 0
140 68 0
-140 -68 0
89 126 0
-89 -126 0
10 63 0
-10 -63 0
10 103 0
-10 -103 0
14 45 0
-14 -45 0
35 20 0
-35 -20 0
109 16 0
-109 -16 0
117 50 0
-117 -50 0
93 72 0
-93 -72 0
99 64 0
-99 -64 0
21 126 0
-21 -126 0
5 133 0
-5 -133 0
24 21 0
-24 -21 0
92 114 0
-92 -114 0
37 111 0
-37 -111 0
107 118 0
-107 -118 0
5 18 0
-5 -18 0
59 85 0
-59 -85 0
1 22 0
-1 -22 0
56 136 0
-56 -136 0
78 114 0
-78 -114 0
112 21 0
-112 -21 0
112 73 0
-112 -73 0
84 39 0
-84 -39 0
13 96 0
-13 -96 0
65 30 0
-65 -30 0
95 118 0
-95 -118 0
60 99 0
-60 -99 0
61 28 0
-61 -28 0
33 120 0
-33 -120 0
56 87 0
-56 -87 0
5 62 0
-5 -62 0
94 1 0
-94 -1 0
128 43 0
-128 -43 0
94 121 0
-94 -121 0
93 105 0
-93 -105 0
93 13 0
-93 -13 0
134 25 0
-134 -25 0
67 27 0
-67 -27 0
28 47 0
-28 -47 0
56 129 0
-56 -129 0
113 1 0
-113 -1 0
78 137 0
-78 -137 0
90 131 0
-90 -131 0
74 122 0
-74 -122 0
100 61 0
-100 -61 0
136 133 0
-136 -133 0
101 70 0
-101 -70 0
71 132 0
-71 -132 0
110 41 0
-110 -41 0
115 83 0
-115 -83 0
2 26 0
-2 -26 0
31 47 0
-31 -47 0
3 133 0
-3 -133 0
108 59 0
-108 -59 0
30 133 0
-30 -133 0
40 26 0
-40 -26 0
97 96 0
-97 -96 0
24 90 0
-24 -90 0
12 8 0
-12 -8 0
121 84 0
-121 -84 0
95 11 0
-95 -11 0
107 77 0
-107 -77 0
54 28 0
-54 -28 0
79 98 0
-79 -98 0
65 91 0
-65 -91 0
11 111 0
-11 -111 0
44 84 0
-44 -84 0
2 85 0
-2 -85 0
97 116 0
-97 -116 0
7 17 0
-7 -17 0
140 117 0
-140 -117 0
48 68 0
-48 -68 0
105 133 0
-105 -133 0
95 91 0
-95 -91 0
84 42 0
-84 -42 0
92 28 0
-92 -28 0
93 25 0
-93 -25 0
29 98 0
-29 -98 0
95 1 0
-95 -1 0
62 104 0
-62 -104 0
97 110 0
-97 -110 0
112 91 0
-112 -91 0
127 72 0
-127 -72 0
127 137 0
-127 -137 0
140 11 0
-140 -11 0
44 55 0
-44 -55 0
83 31 0
-83 -31 0
10 15 0
-10 -15 0
25 15 0
-25 -15 0
138 28 0
-138 -28 0
107 26 0
-107 -26 0
40 42 0
-40 -42 0
116 38 0
-116 -38 0
54 91 0
-54 -91 0
67 136 0
-67 -136 0
78 30 0
-78 -30 0
57 90 0
-57 -90 0
62 65 0
-62 -65 0
24 81 0
-24 -81 0
94 72 0
-94 -72 0
134 1 0
-134 -1 0
95 21 0
-95 -21 0
30 84 0
-30 -84 0
117 35 0
-117 -35 0
122 136 0
-122 -136 0
134 56 0
-134 -56 0
104 64 0
-104 -64 0
97 36 0
-97 -36 0
40 126 0
-40 -126 0
37 83 0
-37 -83 0
59 6 0
-59 -6 0
63 55 0
-63 -55 0
24 86 0
-24 -86 0
3 42 0
-3 -42 0
12 138 0
-12 -138 0
54 126 0
-54 -126 0
130 8 0
-130 -8 0
11 137 0
-11 -137 0
113 32 0
-113 -32 0
133 16 0
-133 -16 0
63 16 0
-63 -16 0
117 127 0
-117 -127 0
79 62 0
-79 -62 0
102 52 0
-102 -52 0
119 45 0
-119 -45 0
78 133 0
-78 -133 0
1 129 0
-1 -129 0
59 9 0
-59 -9 0
57 91 0
-57 -91 0
89 8 0
-89 -8 0
28 52 0
-28 -52 0
46 85 0
-46 -85 0
92 18 0
-92 -18 0
54 102 0
-54 -102 0
103 45 0
-103 -45 0
92 2 0
-92 -2 0
23 27 0
-23 -27 0
74 63 0
-74 -63 0
128 114 0
-128 -114 0
14 27 0
-14 -27 0
13 28 0
-13 -28 0
60 54 0
-60 -54 0
51 104 0
-51 -104 0
48 8 0
-48 -8 0
69 41 0
-69 -41 0
78 68 0
-78 -68 0
7 44 0
-7 -44 0
130 39 0
-130 -39 0
45 23 0
-45 -23 0
136 120 0
-136 -120 0
60 1 0
-60 -1 0
129 4 0
-129 -4 0
117 136 0
-117 -136 0
87 123 0
-87 -123 0
90 47 0
-90 -47 0
66 18 0
-66 -18 0
67 73 0
-67 -73 0
81 128 0
-81 -128 0
58 67 0
-58 -67 0
48 16 0
-48 -16 0
29 13 0
-29 -13 0
62 111 0
-62 -111 0
91 55 0
-91 -55 0
119 6 0
-119 -6 0
113 114 0
-113 -114 0
35 15 0
-35 -15 0
68 61 0
-68 -61 0
46 108 0
-46 -108 0
124 135 0
-124 -135 0
